81 61 68 
65 83 59 75 16 15 11 9 87 97 74 58 77 25 
72 36 39 42 44 41 38 40 43 35 37 54 
45 2 5 3 1 70 100 
64 19 23 21 18 76 51 84 85 50 34 32 26 89 48 24 91 80 
47 14 12 73 78 79 7 6 8 46 4 55 
69 98 88 53 10 13 17 60 
82 52 99 86 57 22 49 20 56 66 
92 95 63 33 28 27 29 31 30 62 67 71 94 96 93 
90 
